SLURM_JOB_ID: 55351146
SLURM_JOB_USER: vsc34888
SLURM_JOB_ACCOUNT: lp_elect_gen_modeling
SLURM_JOB_NAME: 3-bus_by_stages_loop_D_hnb
SLURM_CLUSTER_NAME: genius
SLURM_JOB_PARTITION: batch
SLURM_NNODES: 1
SLURM_NODELIST: r23i13n05
SLURM_JOB_CPUS_PER_NODE: 36
Date: Wed Nov 15 17:46:14 CET 2023
Walltime: 00-06:00:00
========================================================================
Activation OK
Starting runs

 #### Academic research license - for non-commercial use only #### 

3-bus_ByStages_nc1000
/lustre1/scratch/348/vsc34888/JointResearch/05.Models/06.Benchmarking/D.Representative_days_based_on_RES_and_Demand
gurobi
['oSN_Main_DCOPF.py', '--case', '3-bus_ByStages_nc1000']
Namespace(case='3-bus_ByStages_nc1000', dir='/lustre1/scratch/348/vsc34888/JointResearch/05.Models/06.Benchmarking/D.Representative_days_based_on_RES_and_Demand', solver='gurobi')
Namespace(case='3-bus_ByStages_nc1000', dir='/lustre1/scratch/348/vsc34888/JointResearch/05.Models/06.Benchmarking/D.Representative_days_based_on_RES_and_Demand', solver='gurobi')
Reading    input data                 ...  0 s
Setting up input data                 ...  0 s
Generating objective function         ...  6 s
Generating operation & investment     ...  0 s
Generating balance                    ...  5 s
Generating storage operation          ...  0 s
Generating generation commitment      ...  33 s
Generating generation capacity        ...  16 s
Generating network    capacity        ...  50 s
Generating network    constraints     ...  129 s
Econometric analysis  constraints     ...  0 s
Set parameter Username
Set parameter TokenServer to value "SET-S-ME-LM3.luna.kuleuven.be"
Read LP format model from file /tmp/tmpbe_sy58r.pyomo.lp
Reading time = 0.18 seconds
x1: 71076 rows, 31379 columns, 196882 nonzeros
Set parameter QCPDual to value 1
Set parameter LogFile to value "/lustre1/scratch/348/vsc34888/JointResearch/05.Models/06.Benchmarking/D.Representative_days_based_on_RES_and_Demand/3-bus_ByStages_nc1000/openStarNet_3-bus_ByStages_nc1000.log"
Set parameter Method to value 2
Set parameter MIPFocus to value 1
Set parameter Presolve to value 2
Set parameter RINS to value 100
Set parameter MIPGap to value 0.01
Set parameter Threads to value 36
Set parameter TimeLimit to value 604800
Set parameter IterationLimit to value 760000000
Gurobi Optimizer version 9.5.0 build v9.5.0rc5 (linux64)
Thread count: 36 physical cores, 36 logical processors, using up to 36 threads
Optimize a model with 71076 rows, 31379 columns and 196882 nonzeros
Model fingerprint: 0xbb4749d7
Variable types: 31370 continuous, 9 integer (9 binary)
Coefficient statistics:
  Matrix range     [1e-03, 2e+05]
  Objective range  [1e+00, 1e+00]
  Bounds range     [6e-06, 2e+00]
  RHS range        [6e-06, 1e+00]
Presolve removed 29034 rows and 8680 columns
Presolve time: 0.16s
Presolved: 42042 rows, 22699 columns, 148816 nonzeros
Variable types: 22690 continuous, 9 integer (9 binary)
Found heuristic solution: objective 74.6326361
Root relaxation presolved: 42042 rows, 22699 columns, 148816 nonzeros

Root barrier log...

Ordering time: 0.01s

Barrier statistics:
 Dense cols : 9
 AA' NZ     : 3.724e+05
 Factor NZ  : 6.337e+05 (roughly 30 MB of memory)
 Factor Ops : 1.302e+07 (less than 1 second per iteration)
 Threads    : 36

                  Objective                Residual
Iter       Primal          Dual         Primal    Dual     Compl     Time
   0   3.84293448e+05 -8.61323805e+07  1.54e+01 8.49e+00  1.62e+03     0s
   1   2.80270731e+04 -1.72612740e+06  1.07e+00 3.15e-09  5.41e+01     1s
   2   3.87672536e+03 -5.77119234e+05  4.08e-02 7.86e-09  7.75e+00     1s
   3   1.75993238e+03 -2.23568134e+04  9.23e-04 1.36e-09  2.97e-01     1s
   4   3.23628370e+02 -4.62703126e+03  2.86e-05 2.52e-10  6.08e-02     1s
   5   2.26245413e+02 -2.03173891e+03  1.42e-05 1.04e-10  2.77e-02     1s
   6   1.70524541e+02 -5.69512074e+02  8.14e-06 2.39e-11  9.09e-03     1s
   7   1.09677663e+02 -1.64795467e+02  3.01e-06 8.29e-12  3.37e-03     1s
   8   8.08517722e+01  2.80743135e+01  5.50e-07 1.21e-12  6.48e-04     1s
   9   6.89708985e+01  6.13076639e+01  8.50e-08 5.68e-14  9.41e-05     1s
  10   6.81442164e+01  6.40030480e+01  6.74e-08 9.06e-14  5.09e-05     1s
  11   6.77219205e+01  6.46250184e+01  5.75e-08 5.68e-14  3.80e-05     1s
  12   6.76670155e+01  6.46921607e+01  5.11e-08 1.28e-13  3.65e-05     1s
  13   6.73439372e+01  6.47988622e+01  4.01e-08 1.21e-13  3.13e-05     1s
  14   6.69567620e+01  6.49711722e+01  2.68e-08 5.68e-14  2.44e-05     1s
  15   6.64180637e+01  6.51812157e+01  1.73e-08 1.14e-13  1.52e-05     1s
  16   6.63963054e+01  6.52874033e+01  1.46e-08 3.13e-13  1.36e-05     1s
  17   6.63162852e+01  6.53937917e+01  1.13e-08 5.68e-14  1.13e-05     1s
  18   6.62833501e+01  6.53971041e+01  1.02e-08 5.68e-14  1.09e-05     1s
  19   6.61899506e+01  6.55541628e+01  7.57e-09 5.68e-14  7.81e-06     1s
  20   6.61326458e+01  6.55990334e+01  4.64e-09 5.68e-14  6.55e-06     1s
  21   6.60994865e+01  6.56599239e+01  3.04e-09 5.68e-14  5.40e-06     1s
  22   6.60696873e+01  6.57555763e+01  1.90e-09 5.68e-14  3.86e-06     1s
  23   6.60593943e+01  6.57575902e+01  1.56e-09 2.13e-13  3.71e-06     1s
  24   6.60388145e+01  6.58964231e+01  9.31e-10 5.68e-14  1.75e-06     1s
  25   6.60226458e+01  6.59333083e+01  5.57e-10 5.68e-14  1.10e-06     1s
  26   6.60173697e+01  6.59398949e+01  3.86e-10 1.14e-13  9.51e-07     1s
  27   6.60119314e+01  6.59613760e+01  2.27e-10 8.53e-14  6.21e-07     1s
  28   6.60083085e+01  6.59991818e+01  1.31e-10 1.14e-13  1.12e-07     1s
  29   6.60057045e+01  6.60031502e+01  5.81e-11 1.21e-13  3.14e-08     1s
  30   6.60040713e+01  6.60035236e+01  1.49e-09 5.68e-14  6.73e-09     1s
  31   6.60035971e+01  6.60035970e+01  5.01e-10 1.42e-13  1.00e-12     1s

Barrier solved model in 31 iterations and 1.10 seconds (0.95 work units)
Optimal objective 6.60035971e+01


Root relaxation: objective 6.600360e+01, 4010 iterations, 0.86 seconds (0.75 work units)

    Nodes    |    Current Node    |     Objective Bounds      |     Work
 Expl Unexpl |  Obj  Depth IntInf | Incumbent    BestBd   Gap | It/Node Time

     0     0   66.00360    0    3   74.63264   66.00360  11.6%     -    1s
     0     0   66.00360    0    3   74.63264   66.00360  11.6%     -    1s
H    0     0                      66.3900943   66.00360  0.58%     -    1s

Explored 1 nodes (4010 simplex iterations) in 2.00 seconds (1.42 work units)
Thread count was 36 (of 36 available processors)

Solution count 2: 66.3901 74.6326 

Optimal solution found (tolerance 1.00e-02)
Best objective 6.639009434518e+01, best bound 6.600359700409e+01, gap 0.5822%
Termination condition:  optimal
# ==========================================================
# = Solver Results                                         =
# ==========================================================
# ----------------------------------------------------------
#   Problem Information
# ----------------------------------------------------------
Problem: 
- Name: x1
  Lower bound: 66.00359700409244
  Upper bound: 66.39009434518145
  Number of objectives: 1
  Number of constraints: 71076
  Number of variables: 31379
  Number of binary variables: 9
  Number of integer variables: 9
  Number of continuous variables: 31370
  Number of nonzeros: 196882
  Sense: minimize
# ----------------------------------------------------------
#   Solver Information
# ----------------------------------------------------------
Solver: 
- Status: ok
  Return code: 0
  Message: Model was solved to optimality (subject to tolerances), and an optimal solution is available.
  Termination condition: optimal
  Termination message: Model was solved to optimality (subject to tolerances), and an optimal solution is available.
  Wall time: 2.0020580291748047
  Error rc: 0
  Time: 2.6708617210388184
# ----------------------------------------------------------
#   Solution Information
# ----------------------------------------------------------
Solution: 
- number of solutions: 0
  number of solutions displayed: 0
# ============================================================================= #
# ============================================================================= #
fixing: vNetworkInvest[2030,Node_1,Node_2,cac2]
fixing: vNetworkInvest[2030,Node_1,Node_3,cac1]
fixing: vNetworkInvest[2030,Node_2,Node_3,cac1]
fixing: vNetworkInvest[2030,Node_1,Node_2,cac3]
fixing: vNetworkInvest[2030,Node_1,Node_3,cac2]
fixing: vNetworkInvest[2030,Node_2,Node_3,cac2]
fixing: vNetworkInvest[2030,Node_1,Node_2,cac1]
fixing: vNetworkInvest[2030,Node_1,Node_3,cac3]
fixing: vNetworkInvest[2030,Node_2,Node_3,cac3]
Number of fixed variables:  9
# ============================================================================= #
# ============================================================================= #
WARNING: Implicitly replacing the Component attribute dual (type=<class
'pyomo.core.base.suffix.Suffix'>) on block 'openStarNet - Open Version of the
StartNetLite Model (Long Term Transmission Expansion Planning) - Version 1.0.0
- January 16, 2023' with a new Component (type=<class
'pyomo.core.base.suffix.Suffix'>). This is usually indicative of a modelling
error. To avoid this warning, use block.del_component() and
block.add_component().
WARNING: Implicitly replacing the Component attribute rc (type=<class
'pyomo.core.base.suffix.Suffix'>) on block 'openStarNet - Open Version of the
StartNetLite Model (Long Term Transmission Expansion Planning) - Version 1.0.0
- January 16, 2023' with a new Component (type=<class
'pyomo.core.base.suffix.Suffix'>). This is usually indicative of a modelling
error. To avoid this warning, use block.del_component() and
block.add_component().
# ==========================================================
# = Solver Results                                         =
# ==========================================================
# ----------------------------------------------------------
#   Problem Information
# ----------------------------------------------------------
Problem: 
- Name: x1
  Lower bound: 66.39009434518148
  Upper bound: 66.39009434518148
  Number of objectives: 1
  Number of constraints: 71076
  Number of variables: 31370
  Number of binary variables: 0
  Number of integer variables: 0
  Number of continuous variables: 31370
  Number of nonzeros: 160837
  Sense: minimize
# ----------------------------------------------------------
#   Solver Information
# ----------------------------------------------------------
Solver: 
- Status: ok
  Return code: 0
  Message: Model was solved to optimality (subject to tolerances), and an optimal solution is available.
  Termination condition: optimal
  Termination message: Model was solved to optimality (subject to tolerances), and an optimal solution is available.
  Wall time: 0.14029598236083984
  Error rc: 0
  Time: 0.817533016204834
# ----------------------------------------------------------
#   Solution Information
# ----------------------------------------------------------
Solution: 
- number of solutions: 0
  number of solutions displayed: 0
Solving                               ...  180 s
Objective function value                   66.39 M€
Objective function value                   66.39009434518148
Writing         cost summary results  ...  0 s
Writing           investment results  ...  0 s
Writing       energy balance results  ...  0 s
Writing    network operation results  ...  0 s
Writing generation operation results  ...  0 s
Writing        ESS operation results  ...  0 s
Writing             economic results  ...  3 s

 #### Academic research license - for non-commercial use only #### 

Elapsed time: 423 seconds

 #### Academic research license - for non-commercial use only #### 

3-bus_ByStages_nc2000
/lustre1/scratch/348/vsc34888/JointResearch/05.Models/06.Benchmarking/D.Representative_days_based_on_RES_and_Demand
gurobi
['oSN_Main_DCOPF.py', '--case', '3-bus_ByStages_nc2000']
Namespace(case='3-bus_ByStages_nc2000', dir='/lustre1/scratch/348/vsc34888/JointResearch/05.Models/06.Benchmarking/D.Representative_days_based_on_RES_and_Demand', solver='gurobi')
Namespace(case='3-bus_ByStages_nc2000', dir='/lustre1/scratch/348/vsc34888/JointResearch/05.Models/06.Benchmarking/D.Representative_days_based_on_RES_and_Demand', solver='gurobi')
Reading    input data                 ...  0 s
Setting up input data                 ...  1 s
Generating objective function         ...  23 s
Generating operation & investment     ...  0 s
Generating balance                    ...  19 s
Generating storage operation          ...  0 s
Generating generation commitment      ...  131 s
Generating generation capacity        ...  65 s
Generating network    capacity        ...  198 s
Generating network    constraints     ...  511 s
Econometric analysis  constraints     ...  0 s
Set parameter Username
Set parameter TokenServer to value "SET-S-ME-LM3.luna.kuleuven.be"
Read LP format model from file /tmp/tmppvhz_zte.pyomo.lp
Reading time = 0.37 seconds
x1: 142161 rows, 62769 columns, 393747 nonzeros
Set parameter QCPDual to value 1
Set parameter LogFile to value "/lustre1/scratch/348/vsc34888/JointResearch/05.Models/06.Benchmarking/D.Representative_days_based_on_RES_and_Demand/3-bus_ByStages_nc2000/openStarNet_3-bus_ByStages_nc2000.log"
Set parameter Method to value 2
Set parameter MIPFocus to value 1
Set parameter Presolve to value 2
Set parameter RINS to value 100
Set parameter MIPGap to value 0.01
Set parameter Threads to value 36
Set parameter TimeLimit to value 604800
Set parameter IterationLimit to value 760000000
Gurobi Optimizer version 9.5.0 build v9.5.0rc5 (linux64)
Thread count: 36 physical cores, 36 logical processors, using up to 36 threads
Optimize a model with 142161 rows, 62769 columns and 393747 nonzeros
Model fingerprint: 0xf471c6ac
Variable types: 62760 continuous, 9 integer (9 binary)
Coefficient statistics:
  Matrix range     [1e-03, 2e+05]
  Objective range  [1e+00, 1e+00]
  Bounds range     [6e-06, 2e+00]
  RHS range        [6e-06, 1e+00]
Presolve removed 58119 rows and 17375 columns
Presolve time: 0.33s
Presolved: 84042 rows, 45394 columns, 297511 nonzeros
Variable types: 45385 continuous, 9 integer (9 binary)
Root relaxation presolved: 84042 rows, 45394 columns, 297511 nonzeros

Root barrier log...

Ordering time: 0.02s

Barrier statistics:
 Dense cols : 9
 AA' NZ     : 7.444e+05
 Factor NZ  : 1.267e+06 (roughly 60 MB of memory)
 Factor Ops : 2.603e+07 (less than 1 second per iteration)
 Threads    : 35

                  Objective                Residual
Iter       Primal          Dual         Primal    Dual     Compl     Time
   0   3.82376176e+05 -1.12468410e+08  1.54e+01 5.79e+00  1.06e+03     1s
   1   2.81610453e+04 -2.25494596e+06  1.07e+00 1.10e-08  3.54e+01     1s
   2   4.04427311e+03 -7.42148374e+05  3.80e-02 6.63e-09  4.96e+00     1s
   3   2.08084781e+03 -3.24515109e+04  8.53e-04 1.06e-09  2.13e-01     1s
   4   3.63221632e+02 -5.30077802e+03  1.23e-05 1.61e-10  3.48e-02     1s
   5   2.58890679e+02 -1.96889799e+03  6.36e-06 5.47e-11  1.37e-02     1s
   6   1.85035642e+02 -5.07077415e+02  3.48e-06 1.29e-11  4.25e-03     1s
   7   1.16322151e+02 -1.34479404e+02  1.36e-06 3.48e-12  1.54e-03     1s
   8   8.24382438e+01  3.44979714e+01  2.79e-07 9.52e-13  2.94e-04     1s
   9   7.04852586e+01  6.18019906e+01  6.78e-08 4.69e-13  5.33e-05     1s
  10   6.93308116e+01  6.37354853e+01  5.28e-08 1.85e-13  3.44e-05     1s
  11   6.86155219e+01  6.42271833e+01  4.07e-08 7.82e-14  2.70e-05     1s
  12   6.80644237e+01  6.43168030e+01  3.05e-08 6.75e-14  2.30e-05     1s
  13   6.79427008e+01  6.44371901e+01  2.81e-08 7.11e-14  2.15e-05     1s
  14   6.70477717e+01  6.47286655e+01  1.22e-08 5.51e-14  1.42e-05     1s
  15   6.67298995e+01  6.48593015e+01  7.16e-09 7.28e-14  1.15e-05     1s
  16   6.65694617e+01  6.52131276e+01  4.98e-09 5.68e-14  8.33e-06     1s
  17   6.64669195e+01  6.52738838e+01  3.81e-09 7.11e-14  7.33e-06     2s
  18   6.64590475e+01  6.52949301e+01  3.73e-09 3.02e-14  7.15e-06     2s
  19   6.64316735e+01  6.54385700e+01  3.35e-09 1.31e-13  6.10e-06     2s
  20   6.64035572e+01  6.54657956e+01  3.03e-09 8.88e-14  5.76e-06     2s
  21   6.63497468e+01  6.55125150e+01  2.45e-09 5.68e-14  5.14e-06     2s
  22   6.62965533e+01  6.56275662e+01  1.80e-09 6.75e-14  4.11e-06     2s
  23   6.62590939e+01  6.56647502e+01  1.41e-09 1.56e-13  3.65e-06     2s
  24   6.62332267e+01  6.57387784e+01  1.10e-09 4.80e-14  3.04e-06     2s
  25   6.62203592e+01  6.57533305e+01  9.56e-10 1.85e-13  2.87e-06     2s
  26   6.62097707e+01  6.57769997e+01  8.45e-10 6.57e-14  2.66e-06     2s
  27   6.62046899e+01  6.57835844e+01  8.03e-10 3.13e-13  2.59e-06     2s
  28   6.62003494e+01  6.57939069e+01  7.70e-10 5.68e-14  2.50e-06     2s
  29   6.61915030e+01  6.58548507e+01  6.90e-10 4.26e-14  2.07e-06     2s
  30   6.61621417e+01  6.59427134e+01  3.68e-10 8.53e-14  1.35e-06     2s
  31   6.61475203e+01  6.59480298e+01  2.53e-10 2.27e-13  1.23e-06     2s
  32   6.61363307e+01  6.60573971e+01  1.60e-10 5.68e-14  4.85e-07     2s
  33   6.61264512e+01  6.60595477e+01  1.08e-09 7.11e-14  4.11e-07     2s
  34   6.61215254e+01  6.61049659e+01  5.35e-10 1.99e-13  1.02e-07     2s
  35   6.61185483e+01  6.61153502e+01  2.36e-10 3.84e-13  1.96e-08     2s
  36   6.61163251e+01  6.61163182e+01  2.40e-11 5.33e-14  4.28e-11     2s
  37   6.61163211e+01  6.61163211e+01  5.04e-13 3.74e-13  4.49e-17     2s

Barrier solved model in 37 iterations and 2.50 seconds (2.06 work units)
Optimal objective 6.61163211e+01


Root relaxation: objective 6.611632e+01, 8010 iterations, 2.28 seconds (1.98 work units)

    Nodes    |    Current Node    |     Objective Bounds      |     Work
 Expl Unexpl |  Obj  Depth IntInf | Incumbent    BestBd   Gap | It/Node Time

     0     0   66.11632    0    3          -   66.11632      -     -    2s
H    0     0                      75.2693460   66.11632  12.2%     -    3s
     0     0   66.11632    0    3   75.26935   66.11632  12.2%     -    3s
H    0     0                      66.4141923   66.11632  0.45%     -    6s

Explored 1 nodes (8010 simplex iterations) in 6.95 seconds (7.18 work units)
Thread count was 36 (of 36 available processors)

Solution count 2: 66.4142 75.2693 

Optimal solution found (tolerance 1.00e-02)
Best objective 6.641419233249e+01, best bound 6.611632112147e+01, gap 0.4485%
Termination condition:  optimal
# ==========================================================
# = Solver Results                                         =
# ==========================================================
# ----------------------------------------------------------
#   Problem Information
# ----------------------------------------------------------
Problem: 
- Name: x1
  Lower bound: 66.11632112146557
  Upper bound: 66.41419233249249
  Number of objectives: 1
  Number of constraints: 142161
  Number of variables: 62769
  Number of binary variables: 9
  Number of integer variables: 9
  Number of continuous variables: 62760
  Number of nonzeros: 393747
  Sense: minimize
# ----------------------------------------------------------
#   Solver Information
# ----------------------------------------------------------
Solver: 
- Status: ok
  Return code: 0
  Message: Model was solved to optimality (subject to tolerances), and an optimal solution is available.
  Termination condition: optimal
  Termination message: Model was solved to optimality (subject to tolerances), and an optimal solution is available.
  Wall time: 6.9485228061676025
  Error rc: 0
  Time: 7.907228708267212
# ----------------------------------------------------------
#   Solution Information
# ----------------------------------------------------------
Solution: 
- number of solutions: 0
  number of solutions displayed: 0
# ============================================================================= #
# ============================================================================= #
fixing: vNetworkInvest[2030,Node_1,Node_3,cac2]
fixing: vNetworkInvest[2030,Node_1,Node_3,cac1]
fixing: vNetworkInvest[2030,Node_1,Node_2,cac2]
fixing: vNetworkInvest[2030,Node_2,Node_3,cac2]
fixing: vNetworkInvest[2030,Node_1,Node_2,cac1]
fixing: vNetworkInvest[2030,Node_2,Node_3,cac1]
fixing: vNetworkInvest[2030,Node_1,Node_3,cac3]
fixing: vNetworkInvest[2030,Node_1,Node_2,cac3]
fixing: vNetworkInvest[2030,Node_2,Node_3,cac3]
Number of fixed variables:  9
# ============================================================================= #
# ============================================================================= #
WARNING: Implicitly replacing the Component attribute dual (type=<class
'pyomo.core.base.suffix.Suffix'>) on block 'openStarNet - Open Version of the
StartNetLite Model (Long Term Transmission Expansion Planning) - Version 1.0.0
- January 16, 2023' with a new Component (type=<class
'pyomo.core.base.suffix.Suffix'>). This is usually indicative of a modelling
error. To avoid this warning, use block.del_component() and
block.add_component().
WARNING: Implicitly replacing the Component attribute rc (type=<class
'pyomo.core.base.suffix.Suffix'>) on block 'openStarNet - Open Version of the
StartNetLite Model (Long Term Transmission Expansion Planning) - Version 1.0.0
- January 16, 2023' with a new Component (type=<class
'pyomo.core.base.suffix.Suffix'>). This is usually indicative of a modelling
error. To avoid this warning, use block.del_component() and
block.add_component().
# ==========================================================
# = Solver Results                                         =
# ==========================================================
# ----------------------------------------------------------
#   Problem Information
# ----------------------------------------------------------
Problem: 
- Name: x1
  Lower bound: 66.41419233249192
  Upper bound: 66.41419233249192
  Number of objectives: 1
  Number of constraints: 142161
  Number of variables: 62760
  Number of binary variables: 0
  Number of integer variables: 0
  Number of continuous variables: 62760
  Number of nonzeros: 321702
  Sense: minimize
# ----------------------------------------------------------
#   Solver Information
# ----------------------------------------------------------
Solver: 
- Status: ok
  Return code: 0
  Message: Model was solved to optimality (subject to tolerances), and an optimal solution is available.
  Termination condition: optimal
  Termination message: Model was solved to optimality (subject to tolerances), and an optimal solution is available.
  Wall time: 0.28878307342529297
  Error rc: 0
  Time: 1.5861108303070068
# ----------------------------------------------------------
#   Solution Information
# ----------------------------------------------------------
Solution: 
- number of solutions: 0
  number of solutions displayed: 0
Solving                               ...  699 s
Objective function value                   66.41 M€
Objective function value                   66.41419233249192
Writing         cost summary results  ...  0 s
Writing           investment results  ...  0 s
Writing       energy balance results  ...  1 s
Writing    network operation results  ...  0 s
Writing generation operation results  ...  0 s
Writing        ESS operation results  ...  0 s
Writing             economic results  ...  11 s

 #### Academic research license - for non-commercial use only #### 

Elapsed time: 1661 seconds

 #### Academic research license - for non-commercial use only #### 

3-bus_ByStages_nc4000
/lustre1/scratch/348/vsc34888/JointResearch/05.Models/06.Benchmarking/D.Representative_days_based_on_RES_and_Demand
gurobi
['oSN_Main_DCOPF.py', '--case', '3-bus_ByStages_nc4000']
Namespace(case='3-bus_ByStages_nc4000', dir='/lustre1/scratch/348/vsc34888/JointResearch/05.Models/06.Benchmarking/D.Representative_days_based_on_RES_and_Demand', solver='gurobi')
Namespace(case='3-bus_ByStages_nc4000', dir='/lustre1/scratch/348/vsc34888/JointResearch/05.Models/06.Benchmarking/D.Representative_days_based_on_RES_and_Demand', solver='gurobi')
Reading    input data                 ...  0 s
Setting up input data                 ...  1 s
Generating objective function         ...  90 s
Generating operation & investment     ...  0 s
Generating balance                    ...  72 s
Generating storage operation          ...  0 s
Generating generation commitment      ...  508 s
Generating generation capacity        ...  253 s
Generating network    capacity        ...  778 s
Generating network    constraints     ...  2020 s
Econometric analysis  constraints     ...  0 s
Set parameter Username
Set parameter TokenServer to value "SET-S-ME-LM3.luna.kuleuven.be"
Read LP format model from file /tmp/tmpex888aaj.pyomo.lp
Reading time = 0.74 seconds
x1: 284358 rows, 125567 columns, 787540 nonzeros
Set parameter QCPDual to value 1
Set parameter LogFile to value "/lustre1/scratch/348/vsc34888/JointResearch/05.Models/06.Benchmarking/D.Representative_days_based_on_RES_and_Demand/3-bus_ByStages_nc4000/openStarNet_3-bus_ByStages_nc4000.log"
Set parameter Method to value 2
Set parameter MIPFocus to value 1
Set parameter Presolve to value 2
Set parameter RINS to value 100
Set parameter MIPGap to value 0.01
Set parameter Threads to value 36
Set parameter TimeLimit to value 604800
Set parameter IterationLimit to value 760000000
Gurobi Optimizer version 9.5.0 build v9.5.0rc5 (linux64)
Thread count: 36 physical cores, 36 logical processors, using up to 36 threads
Optimize a model with 284358 rows, 125567 columns and 787540 nonzeros
Model fingerprint: 0x2e2be90c
Variable types: 125558 continuous, 9 integer (9 binary)
Coefficient statistics:
  Matrix range     [1e-03, 2e+05]
  Objective range  [1e+00, 1e+00]
  Bounds range     [7e-06, 2e+00]
  RHS range        [7e-06, 1e+00]
Presolve removed 116316 rows and 34774 columns
Presolve time: 0.75s
Presolved: 168042 rows, 90793 columns, 594910 nonzeros
Variable types: 90784 continuous, 9 integer (9 binary)
Root relaxation presolved: 168042 rows, 90793 columns, 594910 nonzeros

Root barrier log...

Ordering time: 0.03s

Barrier statistics:
 Dense cols : 9
 AA' NZ     : 1.488e+06
 Factor NZ  : 2.533e+06 (roughly 130 MB of memory)
 Factor Ops : 5.205e+07 (less than 1 second per iteration)
 Threads    : 35

                  Objective                Residual
Iter       Primal          Dual         Primal    Dual     Compl     Time
   0   3.84035408e+05 -1.61311926e+08  1.54e+01 3.29e+00  7.60e+02     2s
   1   2.84840583e+04 -3.23558887e+06  1.07e+00 9.68e-09  2.54e+01     2s
   2   4.30119503e+03 -1.05492508e+06  3.86e-02 1.74e-08  3.53e+00     2s
   3   2.54133044e+03 -4.77316410e+04  8.70e-04 2.47e-09  1.55e-01     2s
   4   4.52097199e+02 -7.81134811e+03  1.00e-05 3.61e-10  2.54e-02     2s
   5   3.09269983e+02 -2.51987332e+03  4.51e-06 1.08e-10  8.69e-03     2s
   6   2.22539679e+02 -7.32661237e+02  2.72e-06 2.64e-11  2.93e-03     2s
   7   1.27687327e+02 -2.25450236e+02  1.09e-06 8.30e-12  1.08e-03     2s
   8   8.51700964e+01  3.64815934e+01  2.23e-07 8.70e-13  1.50e-04     3s
   9   6.99408446e+01  6.14871887e+01  2.66e-08 3.27e-13  2.60e-05     3s
  10   6.87248202e+01  6.41534566e+01  2.00e-08 6.39e-14  1.40e-05     3s
  11   6.83791433e+01  6.46980649e+01  1.78e-08 2.24e-13  1.13e-05     3s
  12   6.82643250e+01  6.47799436e+01  1.69e-08 1.28e-13  1.07e-05     3s
  13   6.77817225e+01  6.48462387e+01  1.36e-08 9.24e-14  9.01e-06     3s
  14   6.75515725e+01  6.49808542e+01  1.13e-08 1.39e-13  7.89e-06     3s
  15   6.72496116e+01  6.51448492e+01  8.49e-09 9.95e-14  6.46e-06     3s
  16   6.71408146e+01  6.52925252e+01  7.67e-09 1.07e-13  5.68e-06     3s
  17   6.68866167e+01  6.53893001e+01  5.61e-09 1.81e-13  4.60e-06     3s
  18   6.66463995e+01  6.55044298e+01  3.41e-09 3.41e-13  3.51e-06     4s
  19   6.64920505e+01  6.56236431e+01  2.25e-09 7.46e-14  2.67e-06     4s
  20   6.64442141e+01  6.56814787e+01  1.88e-09 6.04e-14  2.34e-06     4s
  21   6.64323652e+01  6.57319186e+01  1.80e-09 1.95e-13  2.15e-06     4s
  22   6.63870011e+01  6.57830492e+01  1.51e-09 2.27e-13  1.85e-06     4s
  23   6.63582314e+01  6.58377858e+01  1.30e-09 1.49e-13  1.60e-06     4s
  24   6.63252644e+01  6.58521307e+01  1.11e-09 1.71e-13  1.45e-06     4s
  25   6.63043837e+01  6.58638719e+01  9.70e-10 7.46e-14  1.35e-06     4s
  26   6.62653730e+01  6.58828699e+01  6.60e-10 5.24e-14  1.17e-06     4s
  27   6.62396297e+01  6.59881624e+01  5.00e-10 6.11e-13  7.72e-07     5s
  28   6.62295722e+01  6.59979065e+01  4.35e-10 1.42e-14  7.11e-07     5s
  29   6.62237189e+01  6.60019365e+01  3.99e-10 2.84e-14  6.81e-07     5s
  30   6.62170480e+01  6.60105018e+01  3.60e-10 1.71e-13  6.34e-07     5s
  31   6.62022399e+01  6.60176516e+01  2.76e-10 1.99e-13  5.67e-07     5s
  32   6.61992337e+01  6.60380784e+01  2.57e-10 2.13e-13  4.95e-07     5s
  33   6.61820162e+01  6.60580301e+01  1.46e-10 2.24e-13  3.81e-07     5s
  34   6.61795375e+01  6.60609737e+01  1.65e-10 7.25e-13  3.64e-07     5s
  35   6.61768339e+01  6.60649185e+01  3.19e-10 4.62e-14  3.44e-07     6s
  36   6.61712083e+01  6.60669092e+01  2.27e-10 4.26e-14  3.20e-07     6s
  37   6.61689236e+01  6.60817450e+01  1.99e-10 3.27e-13  2.68e-07     6s
  38   6.61669847e+01  6.61099846e+01  1.73e-10 3.20e-14  1.75e-07     6s
  39   6.61630531e+01  6.61247009e+01  3.87e-10 7.82e-14  1.18e-07     6s
  40   6.61583630e+01  6.61326398e+01  1.75e-09 3.84e-13  7.90e-08     6s
  41   6.61571583e+01  6.61508427e+01  1.13e-09 2.10e-13  1.94e-08     6s
  42   6.61548408e+01  6.61546244e+01  4.42e-10 2.84e-13  6.65e-10     6s
  43   6.61547340e+01  6.61547340e+01  1.35e-10 7.28e-14  3.42e-14     7s

Barrier solved model in 43 iterations and 6.54 seconds (4.93 work units)
Optimal objective 6.61547340e+01


Root crossover log...

   24007 DPushes remaining with DInf 0.0000000e+00                 7s
       0 DPushes remaining with DInf 0.0000000e+00                 7s

   15874 PPushes remaining with PInf 0.0000000e+00                 7s
       0 PPushes remaining with PInf 0.0000000e+00                 7s

  Push phase complete: Pinf 0.0000000e+00, Dinf 1.1013559e-12      7s


Root simplex log...

Iteration    Objective       Primal Inf.    Dual Inf.      Time
   16010    6.6154734e+01   0.000000e+00   0.000000e+00      7s
   16010    6.6154734e+01   0.000000e+00   0.000000e+00      7s

Root relaxation: objective 6.615473e+01, 16010 iterations, 5.99 seconds (4.75 work units)

    Nodes    |    Current Node    |     Objective Bounds      |     Work
 Expl Unexpl |  Obj  Depth IntInf | Incumbent    BestBd   Gap | It/Node Time

     0     0   66.15473    0    3          -   66.15473      -     -    7s
H    0     0                      75.5168485   66.15473  12.4%     -    7s
     0     0   66.15473    0    3   75.51685   66.15473  12.4%     -    9s
H    0     0                      66.4156269   66.15473  0.39%     -   19s

Explored 1 nodes (16010 simplex iterations) in 19.87 seconds (25.72 work units)
Thread count was 36 (of 36 available processors)

Solution count 2: 66.4156 75.5168 

Optimal solution found (tolerance 1.00e-02)
Best objective 6.641562687048e+01, best bound 6.615473395245e+01, gap 0.3928%
Termination condition:  optimal
# ==========================================================
# = Solver Results                                         =
# ==========================================================
# ----------------------------------------------------------
#   Problem Information
# ----------------------------------------------------------
Problem: 
- Name: x1
  Lower bound: 66.15473395244808
  Upper bound: 66.41562687048109
  Number of objectives: 1
  Number of constraints: 284358
  Number of variables: 125567
  Number of binary variables: 9
  Number of integer variables: 9
  Number of continuous variables: 125558
  Number of nonzeros: 787540
  Sense: minimize
# ----------------------------------------------------------
#   Solver Information
# ----------------------------------------------------------
Solver: 
- Status: ok
  Return code: 0
  Message: Model was solved to optimality (subject to tolerances), and an optimal solution is available.
  Termination condition: optimal
  Termination message: Model was solved to optimality (subject to tolerances), and an optimal solution is available.
  Wall time: 19.8772029876709
  Error rc: 0
  Time: 21.649709939956665
# ----------------------------------------------------------
#   Solution Information
# ----------------------------------------------------------
Solution: 
- number of solutions: 0
  number of solutions displayed: 0
# ============================================================================= #
# ============================================================================= #
fixing: vNetworkInvest[2030,Node_1,Node_3,cac3]
fixing: vNetworkInvest[2030,Node_1,Node_2,cac2]
fixing: vNetworkInvest[2030,Node_2,Node_3,cac1]
fixing: vNetworkInvest[2030,Node_1,Node_3,cac1]
fixing: vNetworkInvest[2030,Node_2,Node_3,cac2]
fixing: vNetworkInvest[2030,Node_1,Node_2,cac3]
fixing: vNetworkInvest[2030,Node_1,Node_3,cac2]
fixing: vNetworkInvest[2030,Node_2,Node_3,cac3]
fixing: vNetworkInvest[2030,Node_1,Node_2,cac1]
Number of fixed variables:  9
# ============================================================================= #
# ============================================================================= #
WARNING: Implicitly replacing the Component attribute dual (type=<class
'pyomo.core.base.suffix.Suffix'>) on block 'openStarNet - Open Version of the
StartNetLite Model (Long Term Transmission Expansion Planning) - Version 1.0.0
- January 16, 2023' with a new Component (type=<class
'pyomo.core.base.suffix.Suffix'>). This is usually indicative of a modelling
error. To avoid this warning, use block.del_component() and
block.add_component().
WARNING: Implicitly replacing the Component attribute rc (type=<class
'pyomo.core.base.suffix.Suffix'>) on block 'openStarNet - Open Version of the
StartNetLite Model (Long Term Transmission Expansion Planning) - Version 1.0.0
- January 16, 2023' with a new Component (type=<class
'pyomo.core.base.suffix.Suffix'>). This is usually indicative of a modelling
error. To avoid this warning, use block.del_component() and
block.add_component().
# ==========================================================
# = Solver Results                                         =
# ==========================================================
# ----------------------------------------------------------
#   Problem Information
# ----------------------------------------------------------
Problem: 
- Name: x1
  Lower bound: 66.41562687048082
  Upper bound: 66.41562687048082
  Number of objectives: 1
  Number of constraints: 284358
  Number of variables: 125558
  Number of binary variables: 0
  Number of integer variables: 0
  Number of continuous variables: 125558
  Number of nonzeros: 643495
  Sense: minimize
# ----------------------------------------------------------
#   Solver Information
# ----------------------------------------------------------
Solver: 
- Status: ok
  Return code: 0
  Message: Model was solved to optimality (subject to tolerances), and an optimal solution is available.
  Termination condition: optimal
  Termination message: Model was solved to optimality (subject to tolerances), and an optimal solution is available.
  Wall time: 0.6043329238891602
  Error rc: 0
  Time: 3.0884978771209717
# ----------------------------------------------------------
#   Solution Information
# ----------------------------------------------------------
Solution: 
- number of solutions: 0
  number of solutions displayed: 0
Solving                               ...  2755 s
Objective function value                   66.42 M€
Objective function value                   66.41562687048082
Writing         cost summary results  ...  0 s
Writing           investment results  ...  0 s
Writing       energy balance results  ...  2 s
Writing    network operation results  ...  0 s
Writing generation operation results  ...  1 s
Writing        ESS operation results  ...  0 s
Writing             economic results  ...  45 s

 #### Academic research license - for non-commercial use only #### 

Elapsed time: 6529 seconds
['3-bus_ByStages_nc1000', '3-bus_ByStages_nc2000', '3-bus_ByStages_nc4000']
python oSN_Main_DCOPF.py --case 3-bus_ByStages_nc1000
python oSN_Main_DCOPF.py --case 3-bus_ByStages_nc2000
python oSN_Main_DCOPF.py --case 3-bus_ByStages_nc4000
